82 55 17 50 32 92 26 6 74 56 34 75 8 29 46 78 68 10 86 79 66 53 22 87 61 73 90 60 67 35 19 85 88 40 20 9 80 43 48 69 89 31 70 13 37 30 16 44 47 57 93 41 3 63 58 84 83 25 62 51 23 94 95 91 18 77 45 72 33 36 42 12 76 27 71 21 24 5 14 1 65 7 49 15 97 59 28 4 52 98 54 99 96 2 64 11 38 39 81